Instance name: /mnt/c/Users/ORG/CLionProjects/uMV-FSTSP/Murray_Chu_2015_test_data/FSTSP/FSTSP_10_customer_problems/20140810T123443v4

drone speed: 0.2 miles/minute
uav non-eligible customer: 4 8 
Printing number of nodes: 11

Set parameter Threads to value 20
Gurobi Optimizer version 11.0.0 build v11.0.0rc2 (linux64 - "Ubuntu 22.04.3 LTS")

CPU model: 13th Gen Intel(R) Core(TM) i5-13500, instruction set [SSE2|AVX|AVX2]
Thread count: 10 physical cores, 20 logical processors, using up to 20 threads

Optimize a model with 6346 rows, 1825 columns and 197322 nonzeros
Model fingerprint: 0x7d244eac
Variable types: 11 continuous, 1814 integer (1814 binary)
Coefficient statistics:
  Matrix range     [1e+00, 3e+01]
  Objective range  [1e+00, 3e+01]
  Bounds range     [1e+00, 1e+00]
  RHS range        [1e+00, 8e+00]
Found heuristic solution: objective 146.3791851
Presolve removed 2049 rows and 1399 columns
Presolve time: 0.29s
Presolved: 4297 rows, 426 columns, 117717 nonzeros
Variable types: 6 continuous, 420 integer (420 binary)

Root relaxation: objective 9.014390e+01, 35 iterations, 0.01 seconds (0.03 work units)

    Nodes    |    Current Node    |     Objective Bounds      |     Work
 Expl Unexpl |  Obj  Depth IntInf | Incumbent    BestBd   Gap | It/Node Time

*    0     0               0      90.1439049   90.14390  0.00%     -    0s

Explored 1 nodes (35 simplex iterations) in 0.32 seconds (0.57 work units)
Thread count was 20 (of 20 available processors)

Solution count 2: 90.1439 146.379 

Optimal solution found (tolerance 1.00e-04)
Best objective 9.014390490788e+01, best bound 9.014390490788e+01, gap 0.0000%
